outputs/case_248.model.txt
suspicious_or_significant_change_detected = False
high_risk_beneficiary_detected = False
customer_high_risk = False
verification_of_beneficial_owner_identity = False
reasonable_measures_to_identify_beneficial_owner = False
enhanced_overall_business_relationship_review = False
beneficiary_is_high_risk = True
senior_management_approval_obtained = False
enhanced_due_diligence_executed = False
legal_minimum_retention_years = 5
customer_reverification_performed = False
customer_or_beneficial_owner_in_exclusion_list = False
data_retention_years = 5
enhanced_ongoing_monitoring = False
customer_is_pep_or_related = False
senior_management_notified = False
reasonable_measures_to_understand_wealth_and_funds_source = False
customer_identification_procedure = True
transaction_monitoring_and_funds_source_understood = True
internal_handling_established = True
enhanced_measures_high_risk = True
immediate_access_to_info = True
customer_identification_data_retention = True
internal_operation_ok = True
internal_handling_ok = True
third_party_provides_info_without_delay = True
risk_based_approach_applied = True
internal_control_executed = True
beneficial_owner_reviewed = True
insurance_high_risk_beneficiary_measures = False
internal_handling_executed = True
internal_operation_established = True
internal_control_established = True
enhanced_due_diligence_pep = True
periodic_review_based_on_risk = True
insurance_beneficiary_risk_considered = False
third_party_regulated_and_monitored = True
third_party_aml_standards_consistent = True
third_party_reliance_compliant = True
ongoing_customer_due_diligence = True
pep_exclusion_applied = True
penalty = False
insurance_high_risk_beneficiary_notification = True
internal_control_ok = True
information_updated_regularly = True
internal_operation_executed = True